14 85 61 7 82 17 93 
26 15 73 72 22 55 25 77 
48 30 51 81 2 58 
94 69 1 41 75 74 95 
44 38 86 5 100 
96 23 67 68 4 80 
63 11 88 8 46 89 12 
28 27 18 99 32 70 
21 16 84 24 
45 76 9 54 
65 71 90 10 31 52 83 
39 29 79 78 3 60 
36 47 53 43 
92 42 40 87 57 13 
33 19 56 59 
34 20 66 35 
50 62 64 97 37 98 91 
49 
6 

